\ Model Q14
\ LP format - for model browsing. Use MPS format to capture full model detail.
Maximize
  6 x[0,0] + 11 x[0,1] + 7 x[0,2] + 11 x[0,3] + 11 x[0,4] + 16 x[0,5]
   + 4 x[0,6] + 17 x[0,7] + 3 x[0,8] + 9 x[0,9] + 9 x[0,10] + 5 x[1,0]
   + 5 x[1,1] + 2 x[1,2] + 7 x[1,3] + 15 x[1,4] + 11 x[1,5] + 2 x[1,6]
   + 12 x[1,7] + 3 x[1,8] + 11 x[1,9] + 6 x[1,10] + 6 x[2,0] + 7 x[2,1]
   + 5 x[2,2] + 10 x[2,3] + 10 x[2,4] + 13 x[2,5] + 10 x[2,6] + 11 x[2,7]
   + 6 x[2,8] + 17 x[2,9] + 3 x[2,10] + 8 x[3,0] + 6 x[3,1] + 3 x[3,2]
   + 8 x[3,3] + 7 x[3,4] + 11 x[3,5] + 6 x[3,6] + 13 x[3,7] + 4 x[3,8]
   + 13 x[3,9] + 6 x[3,10] + 8 x[4,0] + 6 x[4,1] + 8 x[4,2] + 12 x[4,3]
   + 9 x[4,4] + 12 x[4,5] + 5 x[4,6] + 10 x[4,7] + 3 x[4,8] + 4 x[4,9]
   + 17 x[4,10] + 17 x[5,0] + 17 x[5,1] + 3 x[5,2] + 15 x[5,3] + 12 x[5,4]
   + 6 x[5,5] + 13 x[5,6] + 4 x[5,7] + 8 x[5,8] + 8 x[5,9] + 3 x[5,10]
   + 16 x[6,0] + 17 x[6,1] + 4 x[6,2] + 16 x[6,3] + 14 x[6,4] + 7 x[6,5]
   + 11 x[6,6] + 5 x[6,7] + 8 x[6,8] + 7 x[6,9] + 9 x[6,10] + 10 x[7,0]
   + 8 x[7,1] + 6 x[7,2] + 11 x[7,3] + 12 x[7,4] + 14 x[7,5] + 16 x[7,6]
   + 18 x[7,7] + 8 x[7,8] + 9 x[7,9] + 2 x[7,10] + 14 x[8,0] + 12 x[8,1]
   + 7 x[8,2] + 12 x[8,3] + 8 x[8,4] + 10 x[8,5] + 9 x[8,6] + 8 x[8,7]
   + 4 x[8,8] + 7 x[8,9] + 6 x[8,10]
Subject To
 R0: x[0,0] + x[0,1] + x[0,2] + x[0,3] + x[0,4] + x[0,5] + x[0,6] + x[0,7]
   + x[0,8] + x[0,9] + x[0,10] = 2
 R1: x[1,0] + x[1,1] + x[1,2] + x[1,3] + x[1,4] + x[1,5] + x[1,6] + x[1,7]
   + x[1,8] + x[1,9] + x[1,10] = 1
 R2: x[2,0] + x[2,1] + x[2,2] + x[2,3] + x[2,4] + x[2,5] + x[2,6] + x[2,7]
   + x[2,8] + x[2,9] + x[2,10] = 1
 R3: x[3,0] + x[3,1] + x[3,2] + x[3,3] + x[3,4] + x[3,5] + x[3,6] + x[3,7]
   + x[3,8] + x[3,9] + x[3,10] = 1
 R4: x[4,0] + x[4,1] + x[4,2] + x[4,3] + x[4,4] + x[4,5] + x[4,6] + x[4,7]
   + x[4,8] + x[4,9] + x[4,10] = 1
 R5: x[5,0] + x[5,1] + x[5,2] + x[5,3] + x[5,4] + x[5,5] + x[5,6] + x[5,7]
   + x[5,8] + x[5,9] + x[5,10] = 1
 R6: x[6,0] + x[6,1] + x[6,2] + x[6,3] + x[6,4] + x[6,5] + x[6,6] + x[6,7]
   + x[6,8] + x[6,9] + x[6,10] = 1
 R7: x[7,0] + x[7,1] + x[7,2] + x[7,3] + x[7,4] + x[7,5] + x[7,6] + x[7,7]
   + x[7,8] + x[7,9] + x[7,10] = 1
 R8: x[8,0] + x[8,1] + x[8,2] + x[8,3] + x[8,4] + x[8,5] + x[8,6] + x[8,7]
   + x[8,8] + x[8,9] + x[8,10] = 2
 R9: x[0,0] + x[1,0] + x[2,0] + x[3,0] + x[4,0] + x[5,0] + x[6,0] + x[7,0]
   + x[8,0] = 1
 R10: x[0,1] + x[1,1] + x[2,1] + x[3,1] + x[4,1] + x[5,1] + x[6,1] + x[7,1]
   + x[8,1] = 1
 R11: x[0,2] + x[1,2] + x[2,2] + x[3,2] + x[4,2] + x[5,2] + x[6,2] + x[7,2]
   + x[8,2] = 1
 R12: x[0,3] + x[1,3] + x[2,3] + x[3,3] + x[4,3] + x[5,3] + x[6,3] + x[7,3]
   + x[8,3] = 1
 R13: x[0,4] + x[1,4] + x[2,4] + x[3,4] + x[4,4] + x[5,4] + x[6,4] + x[7,4]
   + x[8,4] = 1
 R14: x[0,5] + x[1,5] + x[2,5] + x[3,5] + x[4,5] + x[5,5] + x[6,5] + x[7,5]
   + x[8,5] = 1
 R15: x[0,6] + x[1,6] + x[2,6] + x[3,6] + x[4,6] + x[5,6] + x[6,6] + x[7,6]
   + x[8,6] = 1
 R16: x[0,7] + x[1,7] + x[2,7] + x[3,7] + x[4,7] + x[5,7] + x[6,7] + x[7,7]
   + x[8,7] = 1
 R17: x[0,8] + x[1,8] + x[2,8] + x[3,8] + x[4,8] + x[5,8] + x[6,8] + x[7,8]
   + x[8,8] = 1
 R18: x[0,9] + x[1,9] + x[2,9] + x[3,9] + x[4,9] + x[5,9] + x[6,9] + x[7,9]
   + x[8,9] = 1
 R19: x[0,10] + x[1,10] + x[2,10] + x[3,10] + x[4,10] + x[5,10] + x[6,10]
   + x[7,10] + x[8,10] = 1
Bounds
Binaries
 x[0,0] x[0,1] x[0,2] x[0,3] x[0,4] x[0,5] x[0,6] x[0,7] x[0,8] x[0,9]
 x[0,10] x[1,0] x[1,1] x[1,2] x[1,3] x[1,4] x[1,5] x[1,6] x[1,7] x[1,8]
 x[1,9] x[1,10] x[2,0] x[2,1] x[2,2] x[2,3] x[2,4] x[2,5] x[2,6] x[2,7]
 x[2,8] x[2,9] x[2,10] x[3,0] x[3,1] x[3,2] x[3,3] x[3,4] x[3,5] x[3,6]
 x[3,7] x[3,8] x[3,9] x[3,10] x[4,0] x[4,1] x[4,2] x[4,3] x[4,4] x[4,5]
 x[4,6] x[4,7] x[4,8] x[4,9] x[4,10] x[5,0] x[5,1] x[5,2] x[5,3] x[5,4]
 x[5,5] x[5,6] x[5,7] x[5,8] x[5,9] x[5,10] x[6,0] x[6,1] x[6,2] x[6,3]
 x[6,4] x[6,5] x[6,6] x[6,7] x[6,8] x[6,9] x[6,10] x[7,0] x[7,1] x[7,2]
 x[7,3] x[7,4] x[7,5] x[7,6] x[7,7] x[7,8] x[7,9] x[7,10] x[8,0] x[8,1]
 x[8,2] x[8,3] x[8,4] x[8,5] x[8,6] x[8,7] x[8,8] x[8,9] x[8,10]
End
